aux_benchmarks/lp2sat/smokers_7_2_prob.lp.lp.cnf
p cnf 392 1335
19 60 0
-19 -60 0
94 -77 0
-94 77 0
-78 -94 0
-79 -94 0
-77 -20 -93 0
-77 20 0
-78 -20 -93 0
-78 20 0
-79 -20 -93 0
-79 20 0
97 -19 0
-97 19 0
222 -97 0
-222 97 0
93 -97 0
-93 97 0
98 -29 -30 0
-98 29 0
-98 30 0
223 -98 0
-223 98 0
224 -77 -98 86 0
-224 77 0
-224 98 0
-224 -86 0
225 -101 -98 86 77 0
-225 101 0
-225 98 0
-225 -86 0
-225 -77 0
226 -101 -86 -77 -98 0
-226 101 0
-226 86 0
-226 77 0
-226 98 0
227 -78 -98 87 0
-227 78 0
-227 98 0
-227 -87 0
228 -102 -98 87 78 0
-228 102 0
-228 98 0
-228 -87 0
-228 -78 0
229 -102 -87 -78 -98 0
-229 102 0
-229 87 0
-229 78 0
-229 98 0
102 -79 -98 88 0
-102 79 0
-102 98 0
-102 -88 0
99 -98 -100 0
-99 98 0
-99 100 0
95 -99 93 0
-95 99 0
-95 -93 0
230 -86 -77 -98 0
-230 86 0
-230 77 0
-230 98 0
231 -98 86 77 0
-231 98 0
-231 -86 0
-231 -77 0
232 -103 -87 -78 -98 0
-232 103 0
-232 87 0
-232 78 0
-232 98 0
233 -103 -98 87 78 0
-233 103 0
-233 98 0
-233 -87 0
-233 -78 0
105 -77 -98 86 0
-105 77 0
-105 98 0
-105 -86 0
234 -103 -78 -98 87 0
-234 103 0
-234 78 0
-234 98 0
-234 -87 0
235 -105 -87 -98 78 0
-235 105 0
-235 87 0
-235 98 0
-235 -78 0
236 -104 -79 -98 88 0
-236 104 0
-236 79 0
-236 98 0
-236 -88 0
237 -106 -88 -98 79 0
-237 106 0
-237 88 0
-237 98 0
-237 -79 0
-99 107 0
96 -98 -107 0
-96 98 0
-96 107 0
-95 96 0
-20 95 93 0
21 61 0
-21 -61 0
110 -80 0
-110 80 0
-81 -110 0
-82 -110 0
-80 -22 -109 0
-80 22 0
-81 -22 -109 0
-81 22 0
-82 -22 -109 0
-82 22 0
113 -21 0
-113 21 0
238 -113 0
-238 113 0
109 -113 0
-109 113 0
114 -24 -25 0
-114 24 0
-114 25 0
239 -114 0
-239 114 0
240 -80 -114 83 0
-240 80 0
-240 114 0
-240 -83 0
241 -117 -114 83 80 0
-241 117 0
-241 114 0
-241 -83 0
-241 -80 0
242 -117 -83 -80 -114 0
-242 117 0
-242 83 0
-242 80 0
-242 114 0
243 -81 -114 84 0
-243 81 0
-243 114 0
-243 -84 0
244 -118 -114 84 81 0
-244 118 0
-244 114 0
-244 -84 0
-244 -81 0
245 -118 -84 -81 -114 0
-245 118 0
-245 84 0
-245 81 0
-245 114 0
118 -82 -114 85 0
-118 82 0
-118 114 0
-118 -85 0
115 -114 -116 0
-115 114 0
-115 116 0
246 -115 109 0
-246 115 0
-246 -109 0
247 -83 -80 -114 0
-247 83 0
-247 80 0
-247 114 0
248 -114 83 80 0
-248 114 0
-248 -83 0
-248 -80 0
249 -119 -84 -81 -114 0
-249 119 0
-249 84 0
-249 81 0
-249 114 0
250 -119 -114 84 81 0
-250 119 0
-250 114 0
-250 -84 0
-250 -81 0
121 -80 -114 83 0
-121 80 0
-121 114 0
-121 -83 0
251 -119 -81 -114 84 0
-251 119 0
-251 81 0
-251 114 0
-251 -84 0
252 -121 -84 -114 81 0
-252 121 0
-252 84 0
-252 114 0
-252 -81 0
253 -120 -82 -114 85 0
-253 120 0
-253 82 0
-253 114 0
-253 -85 0
254 -122 -85 -114 82 0
-254 122 0
-254 85 0
-254 114 0
-254 -82 0
-115 123 0
255 -114 -123 0
-255 114 0
-255 123 0
124 -29 -36 0
-124 29 0
-124 36 0
256 -124 0
-256 124 0
257 -80 -124 86 0
-257 80 0
-257 124 0
-257 -86 0
258 -127 -124 86 80 0
-258 127 0
-258 124 0
-258 -86 0
-258 -80 0
259 -127 -86 -80 -124 0
-259 127 0
-259 86 0
-259 80 0
-259 124 0
260 -81 -124 87 0
-260 81 0
-260 124 0
-260 -87 0
261 -128 -124 87 81 0
-261 128 0
-261 124 0
-261 -87 0
-261 -81 0
262 -128 -87 -81 -124 0
-262 128 0
-262 87 0
-262 81 0
-262 124 0
128 -82 -124 88 0
-128 82 0
-128 124 0
-128 -88 0
125 -124 -126 0
-125 124 0
-125 126 0
263 -125 109 0
-263 125 0
-263 -109 0
264 -86 -80 -124 0
-264 86 0
-264 80 0
-264 124 0
265 -124 86 80 0
-265 124 0
-265 -86 0
-265 -80 0
266 -129 -87 -81 -124 0
-266 129 0
-266 87 0
-266 81 0
-266 124 0
267 -129 -124 87 81 0
-267 129 0
-267 124 0
-267 -87 0
-267 -81 0
131 -80 -124 86 0
-131 80 0
-131 124 0
-131 -86 0
268 -129 -81 -124 87 0
-268 129 0
-268 81 0
-268 124 0
-268 -87 0
269 -131 -87 -124 81 0
-269 131 0
-269 87 0
-269 124 0
-269 -81 0
270 -130 -82 -124 88 0
-270 130 0
-270 82 0
-270 124 0
-270 -88 0
271 -132 -88 -124 82 0
-271 132 0
-271 88 0
-271 124 0
-271 -82 0
-125 133 0
272 -124 -133 0
-272 124 0
-272 133 0
-111 112 0
-22 111 109 0
23 62 0
-23 -62 0
136 -83 0
-136 83 0
-84 -136 0
-85 -136 0
-83 -24 -135 0
-83 24 0
-84 -24 -135 0
-84 24 0
-85 -24 -135 0
-85 24 0
139 -23 0
-139 23 0
273 -139 0
-273 139 0
135 -139 0
-135 139 0
140 -22 -26 0
-140 22 0
-140 26 0
274 -140 0
-274 140 0
275 -83 -140 80 0
-275 83 0
-275 140 0
-275 -80 0
276 -143 -140 80 83 0
-276 143 0
-276 140 0
-276 -80 0
-276 -83 0
277 -143 -80 -83 -140 0
-277 143 0
-277 80 0
-277 83 0
-277 140 0
278 -84 -140 81 0
-278 84 0
-278 140 0
-278 -81 0
279 -144 -140 81 84 0
-279 144 0
-279 140 0
-279 -81 0
-279 -84 0
280 -144 -81 -84 -140 0
-280 144 0
-280 81 0
-280 84 0
-280 140 0
144 -85 -140 82 0
-144 85 0
-144 140 0
-144 -82 0
141 -140 -142 0
-141 140 0
-141 142 0
281 -141 135 0
-281 141 0
-281 -135 0
282 -80 -83 -140 0
-282 80 0
-282 83 0
-282 140 0
283 -140 80 83 0
-283 140 0
-283 -80 0
-283 -83 0
284 -145 -81 -84 -140 0
-284 145 0
-284 81 0
-284 84 0
-284 140 0
285 -145 -140 81 84 0
-285 145 0
-285 140 0
-285 -81 0
-285 -84 0
147 -83 -140 80 0
-147 83 0
-147 140 0
-147 -80 0
286 -145 -84 -140 81 0
-286 145 0
-286 84 0
-286 140 0
-286 -81 0
287 -147 -81 -140 84 0
-287 147 0
-287 81 0
-287 140 0
-287 -84 0
288 -146 -85 -140 82 0
-288 146 0
-288 85 0
-288 140 0
-288 -82 0
289 -148 -82 -140 85 0
-289 148 0
-289 82 0
-289 140 0
-289 -85 0
-141 149 0
290 -140 -149 0
-290 140 0
-290 149 0
150 -29 -38 0
-150 29 0
-150 38 0
291 -150 0
-291 150 0
292 -83 -150 86 0
-292 83 0
-292 150 0
-292 -86 0
293 -153 -150 86 83 0
-293 153 0
-293 150 0
-293 -86 0
-293 -83 0
294 -153 -86 -83 -150 0
-294 153 0
-294 86 0
-294 83 0
-294 150 0
295 -84 -150 87 0
-295 84 0
-295 150 0
-295 -87 0
296 -154 -150 87 84 0
-296 154 0
-296 150 0
-296 -87 0
-296 -84 0
297 -154 -87 -84 -150 0
-297 154 0
-297 87 0
-297 84 0
-297 150 0
154 -85 -150 88 0
-154 85 0
-154 150 0
-154 -88 0
151 -150 -152 0
-151 150 0
-151 152 0
298 -151 135 0
-298 151 0
-298 -135 0
299 -86 -83 -150 0
-299 86 0
-299 83 0
-299 150 0
300 -150 86 83 0
-300 150 0
-300 -86 0
-300 -83 0
301 -155 -87 -84 -150 0
-301 155 0
-301 87 0
-301 84 0
-301 150 0
302 -155 -150 87 84 0
-302 155 0
-302 150 0
-302 -87 0
-302 -84 0
157 -83 -150 86 0
-157 83 0
-157 150 0
-157 -86 0
303 -155 -84 -150 87 0
-303 155 0
-303 84 0
-303 150 0
-303 -87 0
304 -157 -87 -150 84 0
-304 157 0
-304 87 0
-304 150 0
-304 -84 0
305 -156 -85 -150 88 0
-305 156 0
-305 85 0
-305 150 0
-305 -88 0
306 -158 -88 -150 85 0
-306 158 0
-306 88 0
-306 150 0
-306 -85 0
-151 159 0
307 -150 -159 0
-307 150 0
-307 159 0
-137 138 0
-24 137 135 0
25 63 0
-25 -63 0
26 64 0
-26 -64 0
27 65 0
-27 -65 0
28 66 0
-28 -66 0
162 -86 0
-162 86 0
-87 -162 0
-88 -162 0
-86 -29 -161 0
-86 29 0
-87 -29 -161 0
-87 29 0
-88 -29 -161 0
-88 29 0
165 -28 0
-165 28 0
308 -165 0
-308 165 0
161 -165 0
-161 165 0
166 -20 -31 0
-166 20 0
-166 31 0
309 -166 0
-309 166 0
310 -86 -166 77 0
-310 86 0
-310 166 0
-310 -77 0
311 -169 -166 77 86 0
-311 169 0
-311 166 0
-311 -77 0
-311 -86 0
312 -169 -77 -86 -166 0
-312 169 0
-312 77 0
-312 86 0
-312 166 0
313 -87 -166 78 0
-313 87 0
-313 166 0
-313 -78 0
314 -170 -166 78 87 0
-314 170 0
-314 166 0
-314 -78 0
-314 -87 0
315 -170 -78 -87 -166 0
-315 170 0
-315 78 0
-315 87 0
-315 166 0
170 -88 -166 79 0
-170 88 0
-170 166 0
-170 -79 0
167 -166 -168 0
-167 166 0
-167 168 0
316 -167 161 0
-316 167 0
-316 -161 0
317 -77 -86 -166 0
-317 77 0
-317 86 0
-317 166 0
318 -166 77 86 0
-318 166 0
-318 -77 0
-318 -86 0
319 -171 -78 -87 -166 0
-319 171 0
-319 78 0
-319 87 0
-319 166 0
320 -171 -166 78 87 0
-320 171 0
-320 166 0
-320 -78 0
-320 -87 0
173 -86 -166 77 0
-173 86 0
-173 166 0
-173 -77 0
321 -171 -87 -166 78 0
-321 171 0
-321 87 0
-321 166 0
-321 -78 0
322 -173 -78 -166 87 0
-322 173 0
-322 78 0
-322 166 0
-322 -87 0
323 -172 -88 -166 79 0
-323 172 0
-323 88 0
-323 166 0
-323 -79 0
324 -174 -79 -166 88 0
-324 174 0
-324 79 0
-324 166 0
-324 -88 0
-167 175 0
325 -166 -175 0
-325 166 0
-325 175 0
176 -34 -35 0
-176 34 0
-176 35 0
326 -176 0
-326 176 0
327 -86 -176 89 0
-327 86 0
-327 176 0
-327 -89 0
328 -179 -176 89 86 0
-328 179 0
-328 176 0
-328 -89 0
-328 -86 0
329 -179 -89 -86 -176 0
-329 179 0
-329 89 0
-329 86 0
-329 176 0
330 -87 -176 90 0
-330 87 0
-330 176 0
-330 -90 0
331 -180 -176 90 87 0
-331 180 0
-331 176 0
-331 -90 0
-331 -87 0
332 -180 -90 -87 -176 0
-332 180 0
-332 90 0
-332 87 0
-332 176 0
180 -88 -176 91 0
-180 88 0
-180 176 0
-180 -91 0
177 -176 -178 0
-177 176 0
-177 178 0
333 -177 161 0
-333 177 0
-333 -161 0
334 -89 -86 -176 0
-334 89 0
-334 86 0
-334 176 0
335 -176 89 86 0
-335 176 0
-335 -89 0
-335 -86 0
336 -181 -90 -87 -176 0
-336 181 0
-336 90 0
-336 87 0
-336 176 0
337 -181 -176 90 87 0
-337 181 0
-337 176 0
-337 -90 0
-337 -87 0
183 -86 -176 89 0
-183 86 0
-183 176 0
-183 -89 0
338 -181 -87 -176 90 0
-338 181 0
-338 87 0
-338 176 0
-338 -90 0
339 -183 -90 -176 87 0
-339 183 0
-339 90 0
-339 176 0
-339 -87 0
340 -182 -88 -176 91 0
-340 182 0
-340 88 0
-340 176 0
-340 -91 0
341 -184 -91 -176 88 0
-341 184 0
-341 91 0
-341 176 0
-341 -88 0
-177 185 0
342 -176 -185 0
-342 176 0
-342 185 0
186 -24 -27 0
-186 24 0
-186 27 0
343 -186 0
-343 186 0
344 -86 -186 83 0
-344 86 0
-344 186 0
-344 -83 0
345 -189 -186 83 86 0
-345 189 0
-345 186 0
-345 -83 0
-345 -86 0
346 -189 -83 -86 -186 0
-346 189 0
-346 83 0
-346 86 0
-346 186 0
347 -87 -186 84 0
-347 87 0
-347 186 0
-347 -84 0
348 -190 -186 84 87 0
-348 190 0
-348 186 0
-348 -84 0
-348 -87 0
349 -190 -84 -87 -186 0
-349 190 0
-349 84 0
-349 87 0
-349 186 0
190 -88 -186 85 0
-190 88 0
-190 186 0
-190 -85 0
187 -186 -188 0
-187 186 0
-187 188 0
350 -187 161 0
-350 187 0
-350 -161 0
351 -83 -86 -186 0
-351 83 0
-351 86 0
-351 186 0
352 -186 83 86 0
-352 186 0
-352 -83 0
-352 -86 0
353 -191 -84 -87 -186 0
-353 191 0
-353 84 0
-353 87 0
-353 186 0
354 -191 -186 84 87 0
-354 191 0
-354 186 0
-354 -84 0
-354 -87 0
193 -86 -186 83 0
-193 86 0
-193 186 0
-193 -83 0
355 -191 -87 -186 84 0
-355 191 0
-355 87 0
-355 186 0
-355 -84 0
356 -193 -84 -186 87 0
-356 193 0
-356 84 0
-356 186 0
-356 -87 0
357 -192 -88 -186 85 0
-357 192 0
-357 88 0
-357 186 0
-357 -85 0
358 -194 -85 -186 88 0
-358 194 0
-358 85 0
-358 186 0
-358 -88 0
-187 195 0
359 -186 -195 0
-359 186 0
-359 195 0
196 -22 -37 0
-196 22 0
-196 37 0
360 -196 0
-360 196 0
361 -86 -196 80 0
-361 86 0
-361 196 0
-361 -80 0
362 -199 -196 80 86 0
-362 199 0
-362 196 0
-362 -80 0
-362 -86 0
363 -199 -80 -86 -196 0
-363 199 0
-363 80 0
-363 86 0
-363 196 0
364 -87 -196 81 0
-364 87 0
-364 196 0
-364 -81 0
365 -200 -196 81 87 0
-365 200 0
-365 196 0
-365 -81 0
-365 -87 0
366 -200 -81 -87 -196 0
-366 200 0
-366 81 0
-366 87 0
-366 196 0
200 -88 -196 82 0
-200 88 0
-200 196 0
-200 -82 0
197 -196 -198 0
-197 196 0
-197 198 0
367 -197 161 0
-367 197 0
-367 -161 0
368 -80 -86 -196 0
-368 80 0
-368 86 0
-368 196 0
369 -196 80 86 0
-369 196 0
-369 -80 0
-369 -86 0
370 -201 -81 -87 -196 0
-370 201 0
-370 81 0
-370 87 0
-370 196 0
371 -201 -196 81 87 0
-371 201 0
-371 196 0
-371 -81 0
-371 -87 0
203 -86 -196 80 0
-203 86 0
-203 196 0
-203 -80 0
372 -201 -87 -196 81 0
-372 201 0
-372 87 0
-372 196 0
-372 -81 0
373 -203 -81 -196 87 0
-373 203 0
-373 81 0
-373 196 0
-373 -87 0
374 -202 -88 -196 82 0
-374 202 0
-374 88 0
-374 196 0
-374 -82 0
375 -204 -82 -196 88 0
-375 204 0
-375 82 0
-375 196 0
-375 -88 0
-197 205 0
376 -196 -205 0
-376 196 0
-376 205 0
-163 164 0
-29 163 161 0
30 67 0
-30 -67 0
31 68 0
-31 -68 0
32 69 0
-32 -69 0
33 70 0
-33 -70 0
208 -89 0
-208 89 0
-90 -208 0
-91 -208 0
-89 -34 -207 0
-89 34 0
-90 -34 -207 0
-90 34 0
-91 -34 -207 0
-91 34 0
211 -33 0
-211 33 0
377 -211 0
-377 211 0
207 -211 0
-207 211 0
212 -29 -32 0
-212 29 0
-212 32 0
378 -212 0
-378 212 0
379 -89 -212 86 0
-379 89 0
-379 212 0
-379 -86 0
380 -215 -212 86 89 0
-380 215 0
-380 212 0
-380 -86 0
-380 -89 0
381 -215 -86 -89 -212 0
-381 215 0
-381 86 0
-381 89 0
-381 212 0
382 -90 -212 87 0
-382 90 0
-382 212 0
-382 -87 0
383 -216 -212 87 90 0
-383 216 0
-383 212 0
-383 -87 0
-383 -90 0
384 -216 -87 -90 -212 0
-384 216 0
-384 87 0
-384 90 0
-384 212 0
216 -91 -212 88 0
-216 91 0
-216 212 0
-216 -88 0
213 -212 -214 0
-213 212 0
-213 214 0
209 -213 207 0
-209 213 0
-209 -207 0
385 -86 -89 -212 0
-385 86 0
-385 89 0
-385 212 0
386 -212 86 89 0
-386 212 0
-386 -86 0
-386 -89 0
387 -217 -87 -90 -212 0
-387 217 0
-387 87 0
-387 90 0
-387 212 0
388 -217 -212 87 90 0
-388 217 0
-388 212 0
-388 -87 0
-388 -90 0
219 -89 -212 86 0
-219 89 0
-219 212 0
-219 -86 0
389 -217 -90 -212 87 0
-389 217 0
-389 90 0
-389 212 0
-389 -87 0
390 -219 -87 -212 90 0
-390 219 0
-390 87 0
-390 212 0
-390 -90 0
391 -218 -91 -212 88 0
-391 218 0
-391 91 0
-391 212 0
-391 -88 0
392 -220 -88 -212 91 0
-392 220 0
-392 88 0
-392 212 0
-392 -91 0
-213 221 0
210 -212 -221 0
-210 212 0
-210 221 0
-209 210 0
-34 209 207 0
35 71 0
-35 -71 0
36 72 0
-36 -72 0
37 73 0
-37 -73 0
38 74 0
-38 -74 0
39 75 0
-39 -75 0
40 -39 0
-40 39 0
41 76 0
-41 -76 0
42 -41 0
-42 41 0
43 0
44 0
45 0
46 0
47 0
48 0
49 0
50 0
51 0
52 0
53 0
54 0
55 0
56 0
57 0
58 0
59 0
60 19 0
-60 -19 0
61 21 0
-61 -21 0
62 23 0
-62 -23 0
63 25 0
-63 -25 0
64 26 0
-64 -26 0
65 27 0
-65 -27 0
66 28 0
-66 -28 0
67 30 0
-67 -30 0
68 31 0
-68 -31 0
69 32 0
-69 -32 0
70 33 0
-70 -33 0
71 35 0
-71 -35 0
72 36 0
-72 -36 0
73 37 0
-73 -37 0
74 38 0
-74 -38 0
75 39 0
-75 -39 0
76 41 0
-76 -41 0
-1 0
-1 0
-2 0
-3 0
-4 0
-5 0
-6 0
-7 0
-8 0
-9 0
-10 0
-11 0
-12 0
-13 0
-14 0
-15 0
-16 0
-17 0
-18 0
-20 222 223 0
20 -222 0
20 -223 0
-22 238 239 256 0
22 -238 0
22 -239 0
22 -256 0
-24 273 274 291 0
24 -273 0
24 -274 0
24 -291 0
-29 308 309 326 343 360 0
29 -308 0
29 -309 0
29 -326 0
29 -343 0
29 -360 0
-34 377 378 0
34 -377 0
34 -378 0
-92 0
-100 224 225 226 0
100 -224 0
100 -225 0
100 -226 0
-101 227 228 229 0
101 -227 0
101 -228 0
101 -229 0
-103 230 231 0
103 -230 0
103 -231 0
-104 232 233 0
104 -232 0
104 -233 0
-106 234 235 0
106 -234 0
106 -235 0
-107 236 237 0
107 -236 0
107 -237 0
-108 0
-111 246 263 0
111 -246 0
111 -263 0
-112 255 272 0
112 -255 0
112 -272 0
-116 240 241 242 0
116 -240 0
116 -241 0
116 -242 0
-117 243 244 245 0
117 -243 0
117 -244 0
117 -245 0
-119 247 248 0
119 -247 0
119 -248 0
-120 249 250 0
120 -249 0
120 -250 0
-122 251 252 0
122 -251 0
122 -252 0
-123 253 254 0
123 -253 0
123 -254 0
-126 257 258 259 0
126 -257 0
126 -258 0
126 -259 0
-127 260 261 262 0
127 -260 0
127 -261 0
127 -262 0
-129 264 265 0
129 -264 0
129 -265 0
-130 266 267 0
130 -266 0
130 -267 0
-132 268 269 0
132 -268 0
132 -269 0
-133 270 271 0
133 -270 0
133 -271 0
-134 0
-137 281 298 0
137 -281 0
137 -298 0
-138 290 307 0
138 -290 0
138 -307 0
-142 275 276 277 0
142 -275 0
142 -276 0
142 -277 0
-143 278 279 280 0
143 -278 0
143 -279 0
143 -280 0
-145 282 283 0
145 -282 0
145 -283 0
-146 284 285 0
146 -284 0
146 -285 0
-148 286 287 0
148 -286 0
148 -287 0
-149 288 289 0
149 -288 0
149 -289 0
-152 292 293 294 0
152 -292 0
152 -293 0
152 -294 0
-153 295 296 297 0
153 -295 0
153 -296 0
153 -297 0
-155 299 300 0
155 -299 0
155 -300 0
-156 301 302 0
156 -301 0
156 -302 0
-158 303 304 0
158 -303 0
158 -304 0
-159 305 306 0
159 -305 0
159 -306 0
-160 0
-163 316 333 350 367 0
163 -316 0
163 -333 0
163 -350 0
163 -367 0
-164 325 342 359 376 0
164 -325 0
164 -342 0
164 -359 0
164 -376 0
-168 310 311 312 0
168 -310 0
168 -311 0
168 -312 0
-169 313 314 315 0
169 -313 0
169 -314 0
169 -315 0
-171 317 318 0
171 -317 0
171 -318 0
-172 319 320 0
172 -319 0
172 -320 0
-174 321 322 0
174 -321 0
174 -322 0
-175 323 324 0
175 -323 0
175 -324 0
-178 327 328 329 0
178 -327 0
178 -328 0
178 -329 0
-179 330 331 332 0
179 -330 0
179 -331 0
179 -332 0
-181 334 335 0
181 -334 0
181 -335 0
-182 336 337 0
182 -336 0
182 -337 0
-184 338 339 0
184 -338 0
184 -339 0
-185 340 341 0
185 -340 0
185 -341 0
-188 344 345 346 0
188 -344 0
188 -345 0
188 -346 0
-189 347 348 349 0
189 -347 0
189 -348 0
189 -349 0
-191 351 352 0
191 -351 0
191 -352 0
-192 353 354 0
192 -353 0
192 -354 0
-194 355 356 0
194 -355 0
194 -356 0
-195 357 358 0
195 -357 0
195 -358 0
-198 361 362 363 0
198 -361 0
198 -362 0
198 -363 0
-199 364 365 366 0
199 -364 0
199 -365 0
199 -366 0
-201 368 369 0
201 -368 0
201 -369 0
-202 370 371 0
202 -370 0
202 -371 0
-204 372 373 0
204 -372 0
204 -373 0
-205 374 375 0
205 -374 0
205 -375 0
-206 0
-214 379 380 381 0
214 -379 0
214 -380 0
214 -381 0
-215 382 383 384 0
215 -382 0
215 -383 0
215 -384 0
-217 385 386 0
217 -385 0
217 -386 0
-218 387 388 0
218 -387 0
218 -388 0
-220 389 390 0
220 -389 0
220 -390 0
-221 391 392 0
221 -391 0
221 -392 0
c p auxilliary 1 2 3 4 5 6 7 8 9 10 11 12 13 14 15 16 17 18 60 61 62 63 64 65 66 67 68 69 70 71 72 73 74 75 76 77 78 79 80 81 82 83 84 85 86 87 88 89 90 91 92 93 94 95 96 97 98 99 100 101 102 103 104 105 106 107 108 109 110 111 112 113 114 115 116 117 118 119 120 121 122 123 124 125 126 127 128 129 130 131 132 133 134 135 136 137 138 139 140 141 142 143 144 145 146 147 148 149 150 151 152 153 154 155 156 157 158 159 160 161 162 163 164 165 166 167 168 169 170 171 172 173 174 175 176 177 178 179 180 181 182 183 184 185 186 187 188 189 190 191 192 193 194 195 196 197 198 199 200 201 202 203 204 205 206 207 208 209 210 211 212 213 214 215 216 217 218 219 220 221 222 223 224 225 226 227 228 229 230 231 232 233 234 235 236 237 238 239 240 241 242 243 244 245 246 247 248 249 250 251 252 253 254 255 256 257 258 259 260 261 262 263 264 265 266 267 268 269 270 271 272 273 274 275 276 277 278 279 280 281 282 283 284 285 286 287 288 289 290 291 292 293 294 295 296 297 298 299 300 301 302 303 304 305 306 307 308 309 310 311 312 313 314 315 316 317 318 319 320 321 322 323 324 325 326 327 328 329 330 331 332 333 334 335 336 337 338 339 340 341 342 343 344 345 346 347 348 349 350 351 352 353 354 355 356 357 358 359 360 361 362 363 364 365 366 367 368 369 370 371 372 373 374 375 376 377 378 379 380 381 382 383 384 385 386 387 388 389 390 391 392 0
