aux_benchmarks/smokers/smokers_7_2_prob.lp.cnf
p cnf 89 151
48 0
-1 48 0
1 -48 0
49 0
-2 49 0
2 -49 0
50 0
-3 50 0
3 -50 0
51 0
-4 51 0
4 -51 0
52 0
-5 52 0
5 -52 0
53 0
-6 53 0
6 -53 0
54 0
-7 54 0
7 -54 0
55 0
-8 55 0
8 -55 0
56 0
-9 56 0
9 -56 0
57 0
-10 57 0
10 -57 0
58 0
-11 58 0
11 -58 0
59 0
-12 59 0
12 -59 0
60 0
-13 60 0
13 -60 0
61 0
-14 61 0
14 -61 0
62 0
-15 62 0
15 -62 0
63 0
-16 63 0
16 -63 0
64 0
-17 64 0
17 -64 0
65 -34 -26 0
-65 34 0
-65 26 0
66 -46 0
-66 46 0
-18 65 66 0
18 -65 0
18 -66 0
67 -21 0
-67 21 0
-20 67 0
20 -67 0
68 -43 0
-68 43 0
69 -38 -18 0
-69 38 0
-69 18 0
-22 68 69 0
22 -68 0
22 -69 0
70 -39 -18 0
-70 39 0
-70 18 0
71 -42 0
-71 42 0
-24 70 71 0
24 -70 0
24 -71 0
72 -33 -28 0
-72 33 0
-72 28 0
73 -44 0
-73 44 0
74 -40 -46 0
-74 40 0
-74 46 0
-26 72 73 74 0
26 -72 0
26 -73 0
26 -74 0
75 -35 -44 0
-75 35 0
-75 44 0
76 -29 0
-76 29 0
77 -41 -45 0
-77 41 0
-77 45 0
-28 75 76 77 0
28 -75 0
28 -76 0
28 -77 0
78 -31 0
-78 31 0
-30 78 0
30 -78 0
79 -25 0
-79 25 0
-42 79 0
42 -79 0
80 -23 0
-80 23 0
-43 80 0
43 -80 0
81 -47 0
-81 47 0
82 -40 -45 0
-82 40 0
-82 45 0
-44 81 82 0
44 -81 0
44 -82 0
83 -37 -43 0
-83 37 0
-83 43 0
84 -36 -42 0
-84 36 0
-84 42 0
85 -34 -47 0
-85 34 0
-85 47 0
86 -19 0
-86 19 0
-45 83 84 85 86 0
45 -83 0
45 -84 0
45 -85 0
45 -86 0
87 -45 0
-87 45 0
88 -32 -28 0
-88 32 0
-88 28 0
-46 87 88 0
46 -87 0
46 -88 0
89 -27 0
-89 27 0
-47 89 0
47 -89 0
c p weight 1 1.0;1.0;1.0;1.0;1.0;1.0;1.0 0
c p weight -1 1.0;1.0;1.0;1.0;1.0;1.0;1.0 0
c p weight 2 1.0;1.0;1.0;1.0;1.0;1.0;1.0 0
c p weight -2 1.0;1.0;1.0;1.0;1.0;1.0;1.0 0
c p weight 3 1.0;1.0;1.0;1.0;1.0;1.0;1.0 0
c p weight -3 1.0;1.0;1.0;1.0;1.0;1.0;1.0 0
c p weight 4 1.0;1.0;1.0;1.0;1.0;1.0;1.0 0
c p weight -4 1.0;1.0;1.0;1.0;1.0;1.0;1.0 0
c p weight 5 1.0;1.0;1.0;1.0;1.0;1.0;1.0 0
c p weight -5 1.0;1.0;1.0;1.0;1.0;1.0;1.0 0
c p weight 6 1.0;1.0;1.0;1.0;1.0;1.0;1.0 0
c p weight -6 1.0;1.0;1.0;1.0;1.0;1.0;1.0 0
c p weight 7 1.0;1.0;1.0;1.0;1.0;1.0;1.0 0
c p weight -7 1.0;1.0;1.0;1.0;1.0;1.0;1.0 0
c p weight 8 1.0;1.0;1.0;1.0;1.0;1.0;1.0 0
c p weight -8 1.0;1.0;1.0;1.0;1.0;1.0;1.0 0
c p weight 9 1.0;1.0;1.0;1.0;1.0;1.0;1.0 0
c p weight -9 1.0;1.0;1.0;1.0;1.0;1.0;1.0 0
c p weight 10 1.0;1.0;1.0;1.0;1.0;1.0;1.0 0
c p weight -10 1.0;1.0;1.0;1.0;1.0;1.0;1.0 0
c p weight 11 1.0;1.0;1.0;1.0;1.0;1.0;1.0 0
c p weight -11 1.0;1.0;1.0;1.0;1.0;1.0;1.0 0
c p weight 12 1.0;1.0;1.0;1.0;1.0;1.0;1.0 0
c p weight -12 1.0;1.0;1.0;1.0;1.0;1.0;1.0 0
c p weight 13 1.0;1.0;1.0;1.0;1.0;1.0;1.0 0
c p weight -13 1.0;1.0;1.0;1.0;1.0;1.0;1.0 0
c p weight 14 1.0;1.0;1.0;1.0;1.0;1.0;1.0 0
c p weight -14 1.0;1.0;1.0;1.0;1.0;1.0;1.0 0
c p weight 15 1.0;1.0;1.0;1.0;1.0;1.0;1.0 0
c p weight -15 1.0;1.0;1.0;1.0;1.0;1.0;1.0 0
c p weight 16 1.0;1.0;1.0;1.0;1.0;1.0;1.0 0
c p weight -16 1.0;1.0;1.0;1.0;1.0;1.0;1.0 0
c p weight 17 1.0;1.0;1.0;1.0;1.0;1.0;1.0 0
c p weight -17 1.0;1.0;1.0;1.0;1.0;1.0;1.0 0
c p weight 18 1.0;1.0;1.0;1.0;1.0;1.0;1.0 0
c p weight -18 0.0;1.0;1.0;1.0;1.0;1.0;1.0 0
c p weight 19 0.5;0.5;0.5;0.5;0.5;0.5;0.5 0
c p weight -19 0.5;0.5;0.5;0.5;0.5;0.5;0.5 0
c p weight 20 1.0;1.0;1.0;1.0;1.0;1.0;1.0 0
c p weight -20 1.0;0.0;1.0;1.0;1.0;1.0;1.0 0
c p weight 21 0.5;0.5;0.5;0.5;0.5;0.5;0.5 0
c p weight -21 0.5;0.5;0.5;0.5;0.5;0.5;0.5 0
c p weight 22 1.0;1.0;1.0;1.0;1.0;1.0;1.0 0
c p weight -22 1.0;1.0;0.0;1.0;1.0;1.0;1.0 0
c p weight 23 0.5;0.5;0.5;0.5;0.5;0.5;0.5 0
c p weight -23 0.5;0.5;0.5;0.5;0.5;0.5;0.5 0
c p weight 24 1.0;1.0;1.0;1.0;1.0;1.0;1.0 0
c p weight -24 1.0;1.0;1.0;0.0;1.0;1.0;1.0 0
c p weight 25 0.5;0.5;0.5;0.5;0.5;0.5;0.5 0
c p weight -25 0.5;0.5;0.5;0.5;0.5;0.5;0.5 0
c p weight 26 1.0;1.0;1.0;1.0;1.0;1.0;1.0 0
c p weight -26 1.0;1.0;1.0;1.0;0.0;1.0;1.0 0
c p weight 27 0.5;0.5;0.5;0.5;0.5;0.5;0.5 0
c p weight -27 0.5;0.5;0.5;0.5;0.5;0.5;0.5 0
c p weight 28 1.0;1.0;1.0;1.0;1.0;1.0;1.0 0
c p weight -28 1.0;1.0;1.0;1.0;1.0;0.0;1.0 0
c p weight 29 0.5;0.5;0.5;0.5;0.5;0.5;0.5 0
c p weight -29 0.5;0.5;0.5;0.5;0.5;0.5;0.5 0
c p weight 30 1.0;1.0;1.0;1.0;1.0;1.0;1.0 0
c p weight -30 1.0;1.0;1.0;1.0;1.0;1.0;0.0 0
c p weight 31 0.5;0.5;0.5;0.5;0.5;0.5;0.5 0
c p weight -31 0.5;0.5;0.5;0.5;0.5;0.5;0.5 0
c p weight 32 0.5;0.5;0.5;0.5;0.5;0.5;0.5 0
c p weight -32 0.5;0.5;0.5;0.5;0.5;0.5;0.5 0
c p weight 33 0.5;0.5;0.5;0.5;0.5;0.5;0.5 0
c p weight -33 0.5;0.5;0.5;0.5;0.5;0.5;0.5 0
c p weight 34 0.5;0.5;0.5;0.5;0.5;0.5;0.5 0
c p weight -34 0.5;0.5;0.5;0.5;0.5;0.5;0.5 0
c p weight 35 0.5;0.5;0.5;0.5;0.5;0.5;0.5 0
c p weight -35 0.5;0.5;0.5;0.5;0.5;0.5;0.5 0
c p weight 36 0.5;0.5;0.5;0.5;0.5;0.5;0.5 0
c p weight -36 0.5;0.5;0.5;0.5;0.5;0.5;0.5 0
c p weight 37 0.5;0.5;0.5;0.5;0.5;0.5;0.5 0
c p weight -37 0.5;0.5;0.5;0.5;0.5;0.5;0.5 0
c p weight 38 0.5;0.5;0.5;0.5;0.5;0.5;0.5 0
c p weight -38 0.5;0.5;0.5;0.5;0.5;0.5;0.5 0
c p weight 39 0.5;0.5;0.5;0.5;0.5;0.5;0.5 0
c p weight -39 0.5;0.5;0.5;0.5;0.5;0.5;0.5 0
c p weight 40 0.5;0.5;0.5;0.5;0.5;0.5;0.5 0
c p weight -40 0.5;0.5;0.5;0.5;0.5;0.5;0.5 0
c p weight 41 0.5;0.5;0.5;0.5;0.5;0.5;0.5 0
c p weight -41 0.5;0.5;0.5;0.5;0.5;0.5;0.5 0
c p weight 42 1.0;1.0;1.0;1.0;1.0;1.0;1.0 0
c p weight -42 1.0;1.0;1.0;1.0;1.0;1.0;1.0 0
c p weight 43 1.0;1.0;1.0;1.0;1.0;1.0;1.0 0
c p weight -43 1.0;1.0;1.0;1.0;1.0;1.0;1.0 0
c p weight 44 1.0;1.0;1.0;1.0;1.0;1.0;1.0 0
c p weight -44 1.0;1.0;1.0;1.0;1.0;1.0;1.0 0
c p weight 45 1.0;1.0;1.0;1.0;1.0;1.0;1.0 0
c p weight -45 1.0;1.0;1.0;1.0;1.0;1.0;1.0 0
c p weight 46 1.0;1.0;1.0;1.0;1.0;1.0;1.0 0
c p weight -46 1.0;1.0;1.0;1.0;1.0;1.0;1.0 0
c p weight 47 1.0;1.0;1.0;1.0;1.0;1.0;1.0 0
c p weight -47 1.0;1.0;1.0;1.0;1.0;1.0;1.0 0
c p weight 48 1.0;1.0;1.0;1.0;1.0;1.0;1.0 0
c p weight -48 1.0;1.0;1.0;1.0;1.0;1.0;1.0 0
c p weight 49 1.0;1.0;1.0;1.0;1.0;1.0;1.0 0
c p weight -49 1.0;1.0;1.0;1.0;1.0;1.0;1.0 0
c p weight 50 1.0;1.0;1.0;1.0;1.0;1.0;1.0 0
c p weight -50 1.0;1.0;1.0;1.0;1.0;1.0;1.0 0
c p weight 51 1.0;1.0;1.0;1.0;1.0;1.0;1.0 0
c p weight -51 1.0;1.0;1.0;1.0;1.0;1.0;1.0 0
c p weight 52 1.0;1.0;1.0;1.0;1.0;1.0;1.0 0
c p weight -52 1.0;1.0;1.0;1.0;1.0;1.0;1.0 0
c p weight 53 1.0;1.0;1.0;1.0;1.0;1.0;1.0 0
c p weight -53 1.0;1.0;1.0;1.0;1.0;1.0;1.0 0
c p weight 54 1.0;1.0;1.0;1.0;1.0;1.0;1.0 0
c p weight -54 1.0;1.0;1.0;1.0;1.0;1.0;1.0 0
c p weight 55 1.0;1.0;1.0;1.0;1.0;1.0;1.0 0
c p weight -55 1.0;1.0;1.0;1.0;1.0;1.0;1.0 0
c p weight 56 1.0;1.0;1.0;1.0;1.0;1.0;1.0 0
c p weight -56 1.0;1.0;1.0;1.0;1.0;1.0;1.0 0
c p weight 57 1.0;1.0;1.0;1.0;1.0;1.0;1.0 0
c p weight -57 1.0;1.0;1.0;1.0;1.0;1.0;1.0 0
c p weight 58 1.0;1.0;1.0;1.0;1.0;1.0;1.0 0
c p weight -58 1.0;1.0;1.0;1.0;1.0;1.0;1.0 0
c p weight 59 1.0;1.0;1.0;1.0;1.0;1.0;1.0 0
c p weight -59 1.0;1.0;1.0;1.0;1.0;1.0;1.0 0
c p weight 60 1.0;1.0;1.0;1.0;1.0;1.0;1.0 0
c p weight -60 1.0;1.0;1.0;1.0;1.0;1.0;1.0 0
c p weight 61 1.0;1.0;1.0;1.0;1.0;1.0;1.0 0
c p weight -61 1.0;1.0;1.0;1.0;1.0;1.0;1.0 0
c p weight 62 1.0;1.0;1.0;1.0;1.0;1.0;1.0 0
c p weight -62 1.0;1.0;1.0;1.0;1.0;1.0;1.0 0
c p weight 63 1.0;1.0;1.0;1.0;1.0;1.0;1.0 0
c p weight -63 1.0;1.0;1.0;1.0;1.0;1.0;1.0 0
c p weight 64 1.0;1.0;1.0;1.0;1.0;1.0;1.0 0
c p weight -64 1.0;1.0;1.0;1.0;1.0;1.0;1.0 0
c p weight 65 1.0;1.0;1.0;1.0;1.0;1.0;1.0 0
c p weight -65 1.0;1.0;1.0;1.0;1.0;1.0;1.0 0
c p weight 66 1.0;1.0;1.0;1.0;1.0;1.0;1.0 0
c p weight -66 1.0;1.0;1.0;1.0;1.0;1.0;1.0 0
c p weight 67 1.0;1.0;1.0;1.0;1.0;1.0;1.0 0
c p weight -67 1.0;1.0;1.0;1.0;1.0;1.0;1.0 0
c p weight 68 1.0;1.0;1.0;1.0;1.0;1.0;1.0 0
c p weight -68 1.0;1.0;1.0;1.0;1.0;1.0;1.0 0
c p weight 69 1.0;1.0;1.0;1.0;1.0;1.0;1.0 0
c p weight -69 1.0;1.0;1.0;1.0;1.0;1.0;1.0 0
c p weight 70 1.0;1.0;1.0;1.0;1.0;1.0;1.0 0
c p weight -70 1.0;1.0;1.0;1.0;1.0;1.0;1.0 0
c p weight 71 1.0;1.0;1.0;1.0;1.0;1.0;1.0 0
c p weight -71 1.0;1.0;1.0;1.0;1.0;1.0;1.0 0
c p weight 72 1.0;1.0;1.0;1.0;1.0;1.0;1.0 0
c p weight -72 1.0;1.0;1.0;1.0;1.0;1.0;1.0 0
c p weight 73 1.0;1.0;1.0;1.0;1.0;1.0;1.0 0
c p weight -73 1.0;1.0;1.0;1.0;1.0;1.0;1.0 0
c p weight 74 1.0;1.0;1.0;1.0;1.0;1.0;1.0 0
c p weight -74 1.0;1.0;1.0;1.0;1.0;1.0;1.0 0
c p weight 75 1.0;1.0;1.0;1.0;1.0;1.0;1.0 0
c p weight -75 1.0;1.0;1.0;1.0;1.0;1.0;1.0 0
c p weight 76 1.0;1.0;1.0;1.0;1.0;1.0;1.0 0
c p weight -76 1.0;1.0;1.0;1.0;1.0;1.0;1.0 0
c p weight 77 1.0;1.0;1.0;1.0;1.0;1.0;1.0 0
c p weight -77 1.0;1.0;1.0;1.0;1.0;1.0;1.0 0
c p weight 78 1.0;1.0;1.0;1.0;1.0;1.0;1.0 0
c p weight -78 1.0;1.0;1.0;1.0;1.0;1.0;1.0 0
c p weight 79 1.0;1.0;1.0;1.0;1.0;1.0;1.0 0
c p weight -79 1.0;1.0;1.0;1.0;1.0;1.0;1.0 0
c p weight 80 1.0;1.0;1.0;1.0;1.0;1.0;1.0 0
c p weight -80 1.0;1.0;1.0;1.0;1.0;1.0;1.0 0
c p weight 81 1.0;1.0;1.0;1.0;1.0;1.0;1.0 0
c p weight -81 1.0;1.0;1.0;1.0;1.0;1.0;1.0 0
c p weight 82 1.0;1.0;1.0;1.0;1.0;1.0;1.0 0
c p weight -82 1.0;1.0;1.0;1.0;1.0;1.0;1.0 0
c p weight 83 1.0;1.0;1.0;1.0;1.0;1.0;1.0 0
c p weight -83 1.0;1.0;1.0;1.0;1.0;1.0;1.0 0
c p weight 84 1.0;1.0;1.0;1.0;1.0;1.0;1.0 0
c p weight -84 1.0;1.0;1.0;1.0;1.0;1.0;1.0 0
c p weight 85 1.0;1.0;1.0;1.0;1.0;1.0;1.0 0
c p weight -85 1.0;1.0;1.0;1.0;1.0;1.0;1.0 0
c p weight 86 1.0;1.0;1.0;1.0;1.0;1.0;1.0 0
c p weight -86 1.0;1.0;1.0;1.0;1.0;1.0;1.0 0
c p weight 87 1.0;1.0;1.0;1.0;1.0;1.0;1.0 0
c p weight -87 1.0;1.0;1.0;1.0;1.0;1.0;1.0 0
c p weight 88 1.0;1.0;1.0;1.0;1.0;1.0;1.0 0
c p weight -88 1.0;1.0;1.0;1.0;1.0;1.0;1.0 0
c p weight 89 1.0;1.0;1.0;1.0;1.0;1.0;1.0 0
c p weight -89 1.0;1.0;1.0;1.0;1.0;1.0;1.0 0
c p semirings aspmc.semirings.probabilistic 0
c p quantify 1 2 3 4 5 6 7 8 9 10 11 12 13 14 15 16 17 18 19 20 21 22 23 24 25 26 27 28 29 30 31 32 33 34 35 36 37 38 39 40 41 42 43 44 45 46 47 48 49 50 51 52 53 54 55 56 57 58 59 60 61 62 63 64 65 66 67 68 69 70 71 72 73 74 75 76 77 78 79 80 81 82 83 84 85 86 87 88 89 0
c p auxilliary 1 2 3 4 5 6 7 8 9 10 11 12 13 14 15 16 17 42 43 44 45 46 47 48 49 50 51 52 53 54 55 56 57 58 59 60 61 62 63 64 65 66 67 68 69 70 71 72 73 74 75 76 77 78 79 80 81 82 83 84 85 86 87 88 89 0
